NAME: GRASP_13_4
TYPE: TSP
COMMENT: line_13_4
DIMENSION: 13
EDGE_WEIGHT_TYPE: EUC_2D
NODE_COORD_SECTION
1 0.0 78.0
2 0.0 73.0
3 0.0 75.0
4 0.0 110.0
5 0.0 78.0
6 0.0 84.0
7 0.0 83.0
8 0.0 53.0
9 0.0 74.0
10 0.0 114.0
11 0.0 23.0
12 0.0 105.0
13 0.0 0.0
